Route 1: 27 40 2 15 41 22 21 4 26 12 28
Route 2: 24 29 34 35 9 33 3 50 1 31
Route 3: 18 5 17 45 8 46 47 48 7
Route 4: 6 37 16 44 38 14 43 42 13
Route 5: 10 19 11 36 49 32 20 30
Route 6: 23 39 25
Vehicles: 6
Distance: 690.74
